c read Graph
c width = 242
c time = 431 ms
c width = 21
c time = 633 ms
c width = 20
c time = 796 ms
c width = 19
c time = 867 ms
c width = 18
c time = 1407 ms
c width = 17
c time = 2738 ms
c width = 17
c time = 4188 ms
s td 214 18 255
b 1 1 2 18
b 2 2 3 18 19
b 3 15 16 33 34
b 4 3 18 19 35
b 5 15 33 34 51
b 6 205 222 223 240
b 7 221 237 238 254
b 8 205 223 240 241
b 9 221 237 253 254
b 10 3 4 5 21
b 11 3 5 20 21 36 52
b 12 5 20 21 36 38 52 54
b 13 5 21 36 38 52 54 70
b 14 5 21 38 52 54 70 86
b 15 5 21 23 38 39 54 70 86
b 16 5 21 22 23 39
b 17 5 23 38 39 54 56 70 72 86
b 18 5 23 39 54 56 70 72 86 88
b 19 5 23 39 56 70 72 86 88 104
b 20 70 86 87 88 104
b 21 5 23 39 41 56 57 72 86 88 104
b 22 23 39 40 41 57
b 23 5 23 41 56 57 72 75 86 88 92 104 106 108 124
b 24 56 57 72 75 88 90 92 106 108 124
b 25 56 57 72 74 75 90 92 108
b 26 74 90 91 92 108
b 27 56 72 73 74 90
b 28 90 106 107 108 124
b 29 72 88 89 90 106
b 30 54 70 71 72 88
b 31 38 54 55 56 72
b 32 52 69 70 86
b 33 36 52 53 54 70
b 34 20 36 37 38 54
b 35 3 20 35 36 52
b 36 3 19 20 35 36
b 37 5 23 41 57 59 75 86 88 92 104 106 108 124
b 38 5 23 41 59 75 86 88 92 104 106 108 122 124 140 154 156 172
b 39 5 23 41 59 75 92 108 124 140 154 156 172 174 192 210 226 244
b 40 5 23 41 59 75 92 108 124 140 142 156 160 174 176 192 210 226 244
b 41 5 23 41 59 75 92 108 124 142 160 176 178 192 194 210 226 244
b 42 5 23 41 59 75 92 108 124 142 160 178 194 210 212 226 230 244 248
b 43 5 23 41 59 75 92 108 124 142 160 178 194 196 212 226 230 244 248
b 44 5 23 41 59 75 92 108 124 142 160 178 196 212 213 226 230 244 248
b 45 5 23 41 59 75 92 108 124 142 160 178 196 213 214 226 230 244 248
b 46 5 23 41 59 75 92 108 124 142 160 178 196 214 226 230 232 244 248
b 47 41 57 58 59 75
b 48 5 23 41 59 75 92 108 110 124 128 142 144 160 178 196 214 232 248
b 49 5 23 41 59 75 92 110 124 128 142 144 160 178 196 214 232 248
b 50 5 23 41 59 75 77 92 95 110 112 128 144 160 178 196 214 232 248
b 51 5 23 41 59 77 95 112 128 144 146 160 164 178 180 196 214 232 248
b 52 5 23 41 59 77 95 112 128 146 160 164 178 180 196 214 232 248
b 53 128 144 146 160 162 164 178 180 196
b 54 144 160 161 162 178
b 55 162 178 179 180 196
b 56 128 144 145 146 162
b 57 146 162 163 164 180
b 58 5 23 41 59 77 95 112 128 146 164 180 196 198 214 232 248
b 59 180 196 197 198 214
b 60 5 23 41 59 77 95 112 128 130 146 164 180 198 214 232 248
b 61 112 128 129 130 146
b 62 5 23 41 59 77 95 112 130 146 164 180 198 214 216 232 248
b 63 198 214 215 216 232
b 64 5 23 41 59 77 95 112 130 146 164 180 182 198 216 232 248
b 65 5 23 41 59 77 95 112 130 146 164 182 198 200 216 232 248
b 66 5 23 41 59 77 95 112 130 146 148 164 182 200 216 232 248
b 67 5 23 41 59 77 95 112 130 148 164 166 182 200 216 232 248
b 68 5 23 41 59 77 95 112 130 148 166 182 184 200 216 232 248
b 69 5 23 41 59 77 95 96 112 114 130 148 166 184 200 216 232 248
b 70 5 23 41 59 77 95 96 114 130 132 148 166 184 200 216 232 248
b 71 5 23 41 59 77 95 96 114 132 148 150 166 184 200 216 232 248
b 72 5 23 41 59 77 95 96 114 132 150 166 168 184 200 216 232 248
b 73 5 23 41 59 77 95 96 114 132 150 168 170 184 186 200 216 232 248
b 74 5 9 23 27 41 45 59 63 77 79 95 96 114 132 150 168 170 186
b 75 5 9 23 27 41 43 45 59 63 77 79 95
b 76 5 9 23 25 27 41 43 59
b 77 25 41 42 43 59
b 78 9 25 26 27 43
b 79 5 7 9 23 25 41
b 80 5 6 7 23
b 81 7 8 9 25
b 82 7 23 24 25 41
b 83 27 43 45 59 61 63 77 79 95
b 84 27 43 44 45 61
b 85 43 59 60 61 77
b 86 45 61 62 63 79
b 87 61 77 78 79 95
b 88 9 27 45 63 79 96 100 102 114 116 118 132 150 168 170 186
b 89 9 27 45 63 64 79 82 96 100 102 114 116 118 132
b 90 63 64 79 82 96 98 100 114 116 132
b 91 82 98 99 100 116
b 92 98 114 115 116 132
b 93 63 64 79 80 82 96 98 114
b 94 64 80 81 82 98
b 95 80 96 97 98 114
b 96 9 13 27 29 45 63 64 82 100 102 118
b 97 9 11 13 27 29 45
b 98 9 10 11 27
b 99 11 27 28 29 45
b 100 11 12 13 29
b 101 13 29 45 47 63 64 82 100 102 118
b 102 29 45 46 47 63
b 103 13 29 47 64 82 84 100 102 118
b 104 13 29 47 64 66 82 84 100 102
b 105 66 82 83 84 100
b 106 13 29 47 48 64 66 82 84 102
b 107 13 29 31 47 48 66 84 102
b 108 13 31 48 66 68 84 102
b 109 13 31 48 50 66 68 84
b 110 50 66 67 68 84
b 111 13 31 32 48 50 66 68
b 112 13 15 31 32 50 68
b 113 13 14 15 31
b 114 15 32 50 51 68
b 115 15 32 33 50 51
b 116 32 48 49 50 66
b 117 68 84 85 102
b 118 13 29 30 31 47
b 119 48 64 65 66 82
b 120 84 100 101 102 118
b 121 100 102 116 118 132 134 150 168 170 186
b 122 116 132 133 134 150
b 123 100 116 117 118 134
b 124 102 118 134 150 152 168 170 186
b 125 152 168 169 170 186
b 126 134 150 151 152 168
b 127 102 118 134 136 152 170
b 128 102 118 119 136
b 129 118 134 135 136 152
b 130 136 152 153 170
b 131 168 170 184 186 200 216 232 248 250
b 132 168 170 184 186 200 216 232 234 250
b 133 216 232 233 234 250
b 134 168 170 184 186 200 216 218 234 250
b 135 200 216 217 218 234
b 136 168 170 184 186 200 202 218 234 250
b 137 168 184 185 186 202
b 138 170 186 202 218 234 250 252
b 139 234 250 251 252
b 140 170 186 202 204 218 234 252
b 141 170 186 187 204
b 142 186 202 204 218 234 236 252
b 143 186 202 204 218 220 236 252
b 144 204 220 236 252 253
b 145 204 220 221 236 253
b 146 220 221 236 237 253
b 147 202 218 219 220 236
b 148 186 202 203 204 220
b 149 218 234 235 236 252
b 150 184 200 201 202 218
b 151 232 248 249 250
b 152 150 166 167 168 184
b 153 132 148 149 150 166
b 154 114 130 131 132 148
b 155 96 112 113 114 130
b 156 166 182 183 184 200
b 157 148 164 165 166 182
b 158 130 146 147 148 164
b 159 182 198 199 200 216
b 160 164 180 181 182 198
b 161 59 75 77 92 93 95 110 112 128
b 162 77 93 95 110 111 112 128
b 163 77 93 94 95 111
b 164 59 75 76 77 93
b 165 92 108 110 124 126 128 142 144 160
b 166 126 142 143 144 160
b 167 108 124 125 126 142
b 168 110 126 127 128 144
b 169 92 108 109 110 126
b 170 106 122 123 124 140
b 171 88 104 105 106 122
b 172 86 104 122 138 140 154 156 172
b 173 122 138 139 140 156
b 174 86 104 120 122 138 154
b 175 86 103 104 120
b 176 120 137 138 154
b 177 104 120 121 122 138
b 178 138 154 155 156 172
b 179 160 176 177 178 194
b 180 176 192 193 194 210
b 181 124 140 142 156 158 160 174 176 192
b 182 140 156 157 158 174
b 183 142 158 159 160 176
b 184 124 140 141 142 158
b 185 158 174 175 176 192
b 186 154 156 172 174 192 208 210 226 244
b 187 154 156 172 174 190 192 208 226 244
b 188 154 172 190 208 226 242 244
b 189 154 172 188 190 208 226 242
b 190 154 171 172 188
b 191 172 188 190 208 224 226 242
b 192 172 188 190 206 208 224 242
b 193 188 206 224 241 242
b 194 188 205 206 224 241
b 195 205 206 223 224 241
b 196 190 206 207 208 224
b 197 172 188 189 190 206
b 198 208 224 225 226 242
b 199 226 242 243 244
b 200 174 190 191 192 208
b 201 156 172 173 174 190
b 202 192 208 209 210 226
b 203 214 230 231 232 248
b 204 194 210 212 226 228 230 244 248
b 205 194 210 211 212 228
b 206 212 228 230 244 246 248
b 207 212 228 229 230 246
b 208 230 246 247 248
b 209 228 244 245 246
b 210 210 226 227 228 244
b 211 178 194 195 196 212
b 212 238 254 255
b 213 222 239 240
b 214 16 17 34
1 2
2 4
3 214
3 5
4 36
5 115
6 213
6 8
7 212
7 9
8 195
9 146
10 11
11 35
11 12
12 34
12 13
13 33
13 14
14 32
14 15
15 17
15 16
17 31
17 18
18 30
18 19
19 21
19 20
21 23
21 22
23 37
23 24
24 28
24 29
24 25
25 26
25 27
35 36
37 47
37 38
38 172
38 171
38 170
38 39
39 186
39 40
40 181
40 41
41 180
41 179
41 42
42 204
42 43
43 211
43 44
44 45
45 46
46 48
46 203
48 165
48 50
48 49
50 161
50 51
51 58
51 53
51 52
53 54
53 55
53 56
53 57
58 59
58 60
60 61
60 62
62 63
62 64
64 160
64 65
65 159
65 66
66 158
66 67
67 157
67 68
68 156
68 69
69 155
69 70
70 154
70 71
71 153
71 72
72 152
72 73
73 131
73 74
74 75
74 88
75 83
75 76
76 78
76 79
76 77
79 80
79 81
79 82
83 84
83 85
83 86
83 87
88 89
88 121
89 96
89 90
90 91
90 92
90 93
93 94
93 95
96 97
96 101
97 98
97 100
97 99
101 102
101 103
103 120
103 104
104 105
104 106
106 119
106 107
107 118
107 108
108 117
108 109
109 110
109 111
111 116
111 112
112 113
112 114
114 115
121 123
121 124
121 122
124 125
124 126
124 127
127 128
127 130
127 129
131 151
131 132
132 133
132 134
134 135
134 136
136 137
136 150
136 138
138 139
138 140
140 141
140 142
142 149
142 143
143 144
143 148
143 147
144 145
145 146
161 162
161 164
162 163
165 167
165 168
165 169
165 166
172 174
172 178
172 173
174 177
174 175
174 176
181 182
181 183
181 184
181 185
186 202
186 187
187 200
187 201
187 188
188 189
188 199
189 191
189 190
191 198
191 192
192 193
192 197
192 196
193 194
194 195
204 210
204 206
204 205
206 208
206 209
206 207
